\ This file has been generated by DOcplex
\ ENCODING=ISO-8859-1
\Problem name: MaximumIndependentSet

Minimize
 obj: - x_0 - x_1 - x_2 - x_3 - x_4 - x_5 - x_6 - x_7 - x_8 - x_9 - x_10 - x_11
      - x_12 - x_13 - x_14 - x_15 - x_16 - x_17 - x_18 - x_19 - x_20 - x_21
      - x_22 - x_23 - x_24 - x_25 - x_26 - x_27 - x_28 - x_29 - x_30 - x_31
      - x_32 - x_33 - x_34 - x_35 - x_36 - x_37 - x_38 - x_39 - x_40 - x_41
      - x_42 - x_43 - x_44 - x_45 - x_46 - x_47 - x_48 - x_49 - x_50 - x_51
      - x_52 - x_53 - x_54 - x_55 - x_56 - x_57 - x_58 - x_59 - x_60 - x_61
      - x_62 - x_63 - x_64 - x_65 - x_66 - x_67 - x_68 - x_69 - x_70 - x_71
      - x_72 - x_73 - x_74 - x_75 - x_76 - x_77 - x_78 - x_79 - x_80 - x_81
      - x_82 - x_83 - x_84 - x_85 - x_86 - x_87 - x_88 - x_89 - x_90 - x_91
      - x_92 - x_93 - x_94 - x_95 - x_96 - x_97 - x_98 - x_99 - x_100 - x_101
      - x_102 - x_103 - x_104 - x_105 - x_106 - x_107 - x_108 - x_109 - x_110
      - x_111 - x_112 - x_113 - x_114 - x_115 - x_116 - x_117 - x_118 - x_119
      - x_120 - x_121 - x_122 - x_123 - x_124 - x_125 - x_126 - x_127 + [
      258 x_0*x_1 + 258 x_0*x_2 + 258 x_0*x_4 + 258 x_0*x_8 + 258 x_0*x_16
      + 258 x_0*x_32 + 258 x_0*x_64 + 258 x_1*x_2 + 258 x_1*x_3 + 258 x_1*x_4
      + 258 x_1*x_5 + 258 x_1*x_8 + 258 x_1*x_9 + 258 x_1*x_16 + 258 x_1*x_17
      + 258 x_1*x_32 + 258 x_1*x_33 + 258 x_1*x_64 + 258 x_1*x_65 + 258 x_2*x_3
      + 258 x_2*x_4 + 258 x_2*x_5 + 258 x_2*x_6 + 258 x_2*x_8 + 258 x_2*x_9
      + 258 x_2*x_10 + 258 x_2*x_16 + 258 x_2*x_17 + 258 x_2*x_18 + 258 x_2*x_32
      + 258 x_2*x_33 + 258 x_2*x_34 + 258 x_2*x_64 + 258 x_2*x_65 + 258 x_2*x_66
      + 258 x_3*x_5 + 258 x_3*x_6 + 258 x_3*x_7 + 258 x_3*x_9 + 258 x_3*x_11
      + 258 x_3*x_17 + 258 x_3*x_19 + 258 x_3*x_33 + 258 x_3*x_35 + 258 x_3*x_65
      + 258 x_3*x_67 + 258 x_4*x_5 + 258 x_4*x_6 + 258 x_4*x_8 + 258 x_4*x_9
      + 258 x_4*x_10 + 258 x_4*x_12 + 258 x_4*x_16 + 258 x_4*x_18 + 258 x_4*x_20
      + 258 x_4*x_32 + 258 x_4*x_34 + 258 x_4*x_36 + 258 x_4*x_64 + 258 x_4*x_66
      + 258 x_4*x_68 + 258 x_5*x_6 + 258 x_5*x_7 + 258 x_5*x_9 + 258 x_5*x_10
      + 258 x_5*x_11 + 258 x_5*x_13 + 258 x_5*x_17 + 258 x_5*x_18 + 258 x_5*x_19
      + 258 x_5*x_21 + 258 x_5*x_33 + 258 x_5*x_34 + 258 x_5*x_35 + 258 x_5*x_37
      + 258 x_5*x_65 + 258 x_5*x_66 + 258 x_5*x_67 + 258 x_5*x_69 + 258 x_6*x_7
      + 258 x_6*x_10 + 258 x_6*x_11 + 258 x_6*x_12 + 258 x_6*x_13 + 258 x_6*x_14
      + 258 x_6*x_18 + 258 x_6*x_19 + 258 x_6*x_22 + 258 x_6*x_34 + 258 x_6*x_35
      + 258 x_6*x_38 + 258 x_6*x_66 + 258 x_6*x_67 + 258 x_6*x_70 + 258 x_7*x_11
      + 258 x_7*x_13 + 258 x_7*x_14 + 258 x_7*x_15 + 258 x_7*x_19 + 258 x_7*x_23
      + 258 x_7*x_35 + 258 x_7*x_39 + 258 x_7*x_67 + 258 x_7*x_71 + 258 x_8*x_9
      + 258 x_8*x_10 + 258 x_8*x_12 + 258 x_8*x_16 + 258 x_8*x_17 + 258 x_8*x_18
      + 258 x_8*x_20 + 258 x_8*x_24 + 258 x_8*x_32 + 258 x_8*x_36 + 258 x_8*x_40
      + 258 x_8*x_64 + 258 x_8*x_68 + 258 x_8*x_72 + 258 x_9*x_10 + 258 x_9*x_11
      + 258 x_9*x_12 + 258 x_9*x_13 + 258 x_9*x_17 + 258 x_9*x_18 + 258 x_9*x_19
      + 258 x_9*x_20 + 258 x_9*x_21 + 258 x_9*x_25 + 258 x_9*x_33 + 258 x_9*x_36
      + 258 x_9*x_37 + 258 x_9*x_41 + 258 x_9*x_65 + 258 x_9*x_68 + 258 x_9*x_69
      + 258 x_9*x_73 + 258 x_10*x_11 + 258 x_10*x_12 + 258 x_10*x_13
      + 258 x_10*x_14 + 258 x_10*x_18 + 258 x_10*x_20 + 258 x_10*x_21
      + 258 x_10*x_22 + 258 x_10*x_26 + 258 x_10*x_34 + 258 x_10*x_36
      + 258 x_10*x_37 + 258 x_10*x_38 + 258 x_10*x_42 + 258 x_10*x_66
      + 258 x_10*x_68 + 258 x_10*x_69 + 258 x_10*x_70 + 258 x_10*x_74
      + 258 x_11*x_13 + 258 x_11*x_14 + 258 x_11*x_15 + 258 x_11*x_19
      + 258 x_11*x_21 + 258 x_11*x_22 + 258 x_11*x_23 + 258 x_11*x_27
      + 258 x_11*x_35 + 258 x_11*x_37 + 258 x_11*x_39 + 258 x_11*x_43
      + 258 x_11*x_67 + 258 x_11*x_69 + 258 x_11*x_71 + 258 x_11*x_75
      + 258 x_12*x_13 + 258 x_12*x_14 + 258 x_12*x_20 + 258 x_12*x_22
      + 258 x_12*x_24 + 258 x_12*x_25 + 258 x_12*x_26 + 258 x_12*x_28
      + 258 x_12*x_36 + 258 x_12*x_38 + 258 x_12*x_44 + 258 x_12*x_68
      + 258 x_12*x_70 + 258 x_12*x_76 + 258 x_13*x_14 + 258 x_13*x_15
      + 258 x_13*x_21 + 258 x_13*x_22 + 258 x_13*x_23 + 258 x_13*x_25
      + 258 x_13*x_26 + 258 x_13*x_27 + 258 x_13*x_29 + 258 x_13*x_37
      + 258 x_13*x_38 + 258 x_13*x_39 + 258 x_13*x_45 + 258 x_13*x_69
      + 258 x_13*x_70 + 258 x_13*x_71 + 258 x_13*x_77 + 258 x_14*x_15
      + 258 x_14*x_22 + 258 x_14*x_23 + 258 x_14*x_26 + 258 x_14*x_28
      + 258 x_14*x_29 + 258 x_14*x_30 + 258 x_14*x_38 + 258 x_14*x_39
      + 258 x_14*x_46 + 258 x_14*x_70 + 258 x_14*x_71 + 258 x_14*x_78
      + 258 x_15*x_23 + 258 x_15*x_27 + 258 x_15*x_29 + 258 x_15*x_30
      + 258 x_15*x_31 + 258 x_15*x_39 + 258 x_15*x_47 + 258 x_15*x_71
      + 258 x_15*x_79 + 258 x_16*x_17 + 258 x_16*x_18 + 258 x_16*x_20
      + 258 x_16*x_24 + 258 x_16*x_32 + 258 x_16*x_33 + 258 x_16*x_34
      + 258 x_16*x_36 + 258 x_16*x_40 + 258 x_16*x_48 + 258 x_16*x_64
      + 258 x_16*x_72 + 258 x_16*x_80 + 258 x_17*x_18 + 258 x_17*x_19
      + 258 x_17*x_20 + 258 x_17*x_21 + 258 x_17*x_24 + 258 x_17*x_25
      + 258 x_17*x_33 + 258 x_17*x_34 + 258 x_17*x_35 + 258 x_17*x_37
      + 258 x_17*x_40 + 258 x_17*x_41 + 258 x_17*x_49 + 258 x_17*x_65
      + 258 x_17*x_72 + 258 x_17*x_73 + 258 x_17*x_81 + 258 x_18*x_19
      + 258 x_18*x_20 + 258 x_18*x_21 + 258 x_18*x_22 + 258 x_18*x_24
      + 258 x_18*x_25 + 258 x_18*x_26 + 258 x_18*x_34 + 258 x_18*x_36
      + 258 x_18*x_37 + 258 x_18*x_38 + 258 x_18*x_40 + 258 x_18*x_41
      + 258 x_18*x_42 + 258 x_18*x_50 + 258 x_18*x_66 + 258 x_18*x_72
      + 258 x_18*x_73 + 258 x_18*x_74 + 258 x_18*x_82 + 258 x_19*x_21
      + 258 x_19*x_22 + 258 x_19*x_23 + 258 x_19*x_25 + 258 x_19*x_27
      + 258 x_19*x_35 + 258 x_19*x_37 + 258 x_19*x_38 + 258 x_19*x_39
      + 258 x_19*x_41 + 258 x_19*x_43 + 258 x_19*x_51 + 258 x_19*x_67
      + 258 x_19*x_73 + 258 x_19*x_75 + 258 x_19*x_83 + 258 x_20*x_21
      + 258 x_20*x_22 + 258 x_20*x_24 + 258 x_20*x_25 + 258 x_20*x_26
      + 258 x_20*x_28 + 258 x_20*x_36 + 258 x_20*x_40 + 258 x_20*x_41
      + 258 x_20*x_42 + 258 x_20*x_44 + 258 x_20*x_52 + 258 x_20*x_68
      + 258 x_20*x_72 + 258 x_20*x_74 + 258 x_20*x_76 + 258 x_20*x_84
      + 258 x_21*x_22 + 258 x_21*x_23 + 258 x_21*x_25 + 258 x_21*x_26
      + 258 x_21*x_27 + 258 x_21*x_29 + 258 x_21*x_37 + 258 x_21*x_41
      + 258 x_21*x_42 + 258 x_21*x_43 + 258 x_21*x_45 + 258 x_21*x_53
      + 258 x_21*x_69 + 258 x_21*x_73 + 258 x_21*x_74 + 258 x_21*x_75
      + 258 x_21*x_77 + 258 x_21*x_85 + 258 x_22*x_23 + 258 x_22*x_26
      + 258 x_22*x_27 + 258 x_22*x_28 + 258 x_22*x_29 + 258 x_22*x_30
      + 258 x_22*x_38 + 258 x_22*x_42 + 258 x_22*x_43 + 258 x_22*x_44
      + 258 x_22*x_45 + 258 x_22*x_46 + 258 x_22*x_54 + 258 x_22*x_70
      + 258 x_22*x_74 + 258 x_22*x_75 + 258 x_22*x_78 + 258 x_22*x_86
      + 258 x_23*x_27 + 258 x_23*x_29 + 258 x_23*x_30 + 258 x_23*x_31
      + 258 x_23*x_39 + 258 x_23*x_43 + 258 x_23*x_45 + 258 x_23*x_46
      + 258 x_23*x_47 + 258 x_23*x_55 + 258 x_23*x_71 + 258 x_23*x_75
      + 258 x_23*x_79 + 258 x_23*x_87 + 258 x_24*x_25 + 258 x_24*x_26
      + 258 x_24*x_28 + 258 x_24*x_40 + 258 x_24*x_44 + 258 x_24*x_48
      + 258 x_24*x_49 + 258 x_24*x_50 + 258 x_24*x_52 + 258 x_24*x_56
      + 258 x_24*x_72 + 258 x_24*x_76 + 258 x_24*x_88 + 258 x_25*x_26
      + 258 x_25*x_27 + 258 x_25*x_28 + 258 x_25*x_29 + 258 x_25*x_41
      + 258 x_25*x_44 + 258 x_25*x_45 + 258 x_25*x_49 + 258 x_25*x_50
      + 258 x_25*x_51 + 258 x_25*x_53 + 258 x_25*x_57 + 258 x_25*x_73
      + 258 x_25*x_76 + 258 x_25*x_77 + 258 x_25*x_89 + 258 x_26*x_27
      + 258 x_26*x_28 + 258 x_26*x_29 + 258 x_26*x_30 + 258 x_26*x_42
      + 258 x_26*x_44 + 258 x_26*x_45 + 258 x_26*x_46 + 258 x_26*x_50
      + 258 x_26*x_52 + 258 x_26*x_53 + 258 x_26*x_54 + 258 x_26*x_58
      + 258 x_26*x_74 + 258 x_26*x_76 + 258 x_26*x_77 + 258 x_26*x_78
      + 258 x_26*x_90 + 258 x_27*x_29 + 258 x_27*x_30 + 258 x_27*x_31
      + 258 x_27*x_43 + 258 x_27*x_45 + 258 x_27*x_47 + 258 x_27*x_51
      + 258 x_27*x_53 + 258 x_27*x_54 + 258 x_27*x_55 + 258 x_27*x_59
      + 258 x_27*x_75 + 258 x_27*x_77 + 258 x_27*x_79 + 258 x_27*x_91
      + 258 x_28*x_29 + 258 x_28*x_30 + 258 x_28*x_44 + 258 x_28*x_46
      + 258 x_28*x_52 + 258 x_28*x_56 + 258 x_28*x_57 + 258 x_28*x_58
      + 258 x_28*x_60 + 258 x_28*x_76 + 258 x_28*x_78 + 258 x_28*x_92
      + 258 x_29*x_30 + 258 x_29*x_31 + 258 x_29*x_45 + 258 x_29*x_46
      + 258 x_29*x_47 + 258 x_29*x_53 + 258 x_29*x_57 + 258 x_29*x_58
      + 258 x_29*x_59 + 258 x_29*x_61 + 258 x_29*x_77 + 258 x_29*x_78
      + 258 x_29*x_79 + 258 x_29*x_93 + 258 x_30*x_31 + 258 x_30*x_46
      + 258 x_30*x_47 + 258 x_30*x_54 + 258 x_30*x_58 + 258 x_30*x_60
      + 258 x_30*x_61 + 258 x_30*x_62 + 258 x_30*x_78 + 258 x_30*x_79
      + 258 x_30*x_94 + 258 x_31*x_47 + 258 x_31*x_55 + 258 x_31*x_59
      + 258 x_31*x_61 + 258 x_31*x_62 + 258 x_31*x_63 + 258 x_31*x_79
      + 258 x_31*x_95 + 258 x_32*x_33 + 258 x_32*x_34 + 258 x_32*x_36
      + 258 x_32*x_40 + 258 x_32*x_48 + 258 x_32*x_64 + 258 x_32*x_65
      + 258 x_32*x_66 + 258 x_32*x_68 + 258 x_32*x_72 + 258 x_32*x_80
      + 258 x_32*x_96 + 258 x_33*x_34 + 258 x_33*x_35 + 258 x_33*x_36
      + 258 x_33*x_37 + 258 x_33*x_40 + 258 x_33*x_41 + 258 x_33*x_48
      + 258 x_33*x_49 + 258 x_33*x_65 + 258 x_33*x_66 + 258 x_33*x_67
      + 258 x_33*x_69 + 258 x_33*x_73 + 258 x_33*x_80 + 258 x_33*x_81
      + 258 x_33*x_97 + 258 x_34*x_35 + 258 x_34*x_36 + 258 x_34*x_37
      + 258 x_34*x_38 + 258 x_34*x_40 + 258 x_34*x_41 + 258 x_34*x_42
      + 258 x_34*x_48 + 258 x_34*x_49 + 258 x_34*x_50 + 258 x_34*x_66
      + 258 x_34*x_68 + 258 x_34*x_69 + 258 x_34*x_70 + 258 x_34*x_74
      + 258 x_34*x_80 + 258 x_34*x_81 + 258 x_34*x_82 + 258 x_34*x_98
      + 258 x_35*x_37 + 258 x_35*x_38 + 258 x_35*x_39 + 258 x_35*x_41
      + 258 x_35*x_43 + 258 x_35*x_49 + 258 x_35*x_51 + 258 x_35*x_67
      + 258 x_35*x_69 + 258 x_35*x_70 + 258 x_35*x_71 + 258 x_35*x_75
      + 258 x_35*x_81 + 258 x_35*x_83 + 258 x_35*x_99 + 258 x_36*x_37
      + 258 x_36*x_38 + 258 x_36*x_40 + 258 x_36*x_41 + 258 x_36*x_42
      + 258 x_36*x_44 + 258 x_36*x_48 + 258 x_36*x_50 + 258 x_36*x_52
      + 258 x_36*x_68 + 258 x_36*x_72 + 258 x_36*x_73 + 258 x_36*x_74
      + 258 x_36*x_76 + 258 x_36*x_80 + 258 x_36*x_82 + 258 x_36*x_84
      + 258 x_36*x_100 + 258 x_37*x_38 + 258 x_37*x_39 + 258 x_37*x_41
      + 258 x_37*x_42 + 258 x_37*x_43 + 258 x_37*x_45 + 258 x_37*x_49
      + 258 x_37*x_50 + 258 x_37*x_51 + 258 x_37*x_53 + 258 x_37*x_69
      + 258 x_37*x_73 + 258 x_37*x_74 + 258 x_37*x_75 + 258 x_37*x_77
      + 258 x_37*x_81 + 258 x_37*x_82 + 258 x_37*x_83 + 258 x_37*x_85
      + 258 x_37*x_101 + 258 x_38*x_39 + 258 x_38*x_42 + 258 x_38*x_43
      + 258 x_38*x_44 + 258 x_38*x_45 + 258 x_38*x_46 + 258 x_38*x_50
      + 258 x_38*x_51 + 258 x_38*x_54 + 258 x_38*x_70 + 258 x_38*x_74
      + 258 x_38*x_76 + 258 x_38*x_77 + 258 x_38*x_78 + 258 x_38*x_82
      + 258 x_38*x_83 + 258 x_38*x_86 + 258 x_38*x_102 + 258 x_39*x_43
      + 258 x_39*x_45 + 258 x_39*x_46 + 258 x_39*x_47 + 258 x_39*x_51
      + 258 x_39*x_55 + 258 x_39*x_71 + 258 x_39*x_75 + 258 x_39*x_77
      + 258 x_39*x_78 + 258 x_39*x_79 + 258 x_39*x_83 + 258 x_39*x_87
      + 258 x_39*x_103 + 258 x_40*x_41 + 258 x_40*x_42 + 258 x_40*x_44
      + 258 x_40*x_48 + 258 x_40*x_49 + 258 x_40*x_50 + 258 x_40*x_52
      + 258 x_40*x_56 + 258 x_40*x_72 + 258 x_40*x_80 + 258 x_40*x_81
      + 258 x_40*x_82 + 258 x_40*x_84 + 258 x_40*x_88 + 258 x_40*x_104
      + 258 x_41*x_42 + 258 x_41*x_43 + 258 x_41*x_44 + 258 x_41*x_45
      + 258 x_41*x_49 + 258 x_41*x_50 + 258 x_41*x_51 + 258 x_41*x_52
      + 258 x_41*x_53 + 258 x_41*x_57 + 258 x_41*x_73 + 258 x_41*x_81
      + 258 x_41*x_82 + 258 x_41*x_83 + 258 x_41*x_84 + 258 x_41*x_85
      + 258 x_41*x_89 + 258 x_41*x_105 + 258 x_42*x_43 + 258 x_42*x_44
      + 258 x_42*x_45 + 258 x_42*x_46 + 258 x_42*x_50 + 258 x_42*x_52
      + 258 x_42*x_53 + 258 x_42*x_54 + 258 x_42*x_58 + 258 x_42*x_74
      + 258 x_42*x_82 + 258 x_42*x_84 + 258 x_42*x_85 + 258 x_42*x_86
      + 258 x_42*x_90 + 258 x_42*x_106 + 258 x_43*x_45 + 258 x_43*x_46
      + 258 x_43*x_47 + 258 x_43*x_51 + 258 x_43*x_53 + 258 x_43*x_54
      + 258 x_43*x_55 + 258 x_43*x_59 + 258 x_43*x_75 + 258 x_43*x_83
      + 258 x_43*x_85 + 258 x_43*x_86 + 258 x_43*x_87 + 258 x_43*x_91
      + 258 x_43*x_107 + 258 x_44*x_45 + 258 x_44*x_46 + 258 x_44*x_52
      + 258 x_44*x_54 + 258 x_44*x_56 + 258 x_44*x_57 + 258 x_44*x_58
      + 258 x_44*x_60 + 258 x_44*x_76 + 258 x_44*x_84 + 258 x_44*x_86
      + 258 x_44*x_88 + 258 x_44*x_89 + 258 x_44*x_90 + 258 x_44*x_92
      + 258 x_44*x_108 + 258 x_45*x_46 + 258 x_45*x_47 + 258 x_45*x_53
      + 258 x_45*x_54 + 258 x_45*x_55 + 258 x_45*x_57 + 258 x_45*x_58
      + 258 x_45*x_59 + 258 x_45*x_61 + 258 x_45*x_77 + 258 x_45*x_85
      + 258 x_45*x_86 + 258 x_45*x_87 + 258 x_45*x_89 + 258 x_45*x_90
      + 258 x_45*x_91 + 258 x_45*x_93 + 258 x_45*x_109 + 258 x_46*x_47
      + 258 x_46*x_54 + 258 x_46*x_55 + 258 x_46*x_58 + 258 x_46*x_60
      + 258 x_46*x_61 + 258 x_46*x_62 + 258 x_46*x_78 + 258 x_46*x_86
      + 258 x_46*x_87 + 258 x_46*x_90 + 258 x_46*x_92 + 258 x_46*x_93
      + 258 x_46*x_94 + 258 x_46*x_110 + 258 x_47*x_55 + 258 x_47*x_59
      + 258 x_47*x_61 + 258 x_47*x_62 + 258 x_47*x_63 + 258 x_47*x_79
      + 258 x_47*x_87 + 258 x_47*x_91 + 258 x_47*x_93 + 258 x_47*x_94
      + 258 x_47*x_95 + 258 x_47*x_111 + 258 x_48*x_49 + 258 x_48*x_50
      + 258 x_48*x_52 + 258 x_48*x_56 + 258 x_48*x_80 + 258 x_48*x_88
      + 258 x_48*x_96 + 258 x_48*x_97 + 258 x_48*x_98 + 258 x_48*x_100
      + 258 x_48*x_104 + 258 x_48*x_112 + 258 x_49*x_50 + 258 x_49*x_51
      + 258 x_49*x_52 + 258 x_49*x_53 + 258 x_49*x_56 + 258 x_49*x_57
      + 258 x_49*x_81 + 258 x_49*x_88 + 258 x_49*x_89 + 258 x_49*x_97
      + 258 x_49*x_98 + 258 x_49*x_99 + 258 x_49*x_101 + 258 x_49*x_105
      + 258 x_49*x_113 + 258 x_50*x_51 + 258 x_50*x_52 + 258 x_50*x_53
      + 258 x_50*x_54 + 258 x_50*x_56 + 258 x_50*x_57 + 258 x_50*x_58
      + 258 x_50*x_82 + 258 x_50*x_88 + 258 x_50*x_89 + 258 x_50*x_90
      + 258 x_50*x_98 + 258 x_50*x_100 + 258 x_50*x_101 + 258 x_50*x_102
      + 258 x_50*x_106 + 258 x_50*x_114 + 258 x_51*x_53 + 258 x_51*x_54
      + 258 x_51*x_55 + 258 x_51*x_57 + 258 x_51*x_59 + 258 x_51*x_83
      + 258 x_51*x_89 + 258 x_51*x_91 + 258 x_51*x_99 + 258 x_51*x_101
      + 258 x_51*x_102 + 258 x_51*x_103 + 258 x_51*x_107 + 258 x_51*x_115
      + 258 x_52*x_53 + 258 x_52*x_54 + 258 x_52*x_56 + 258 x_52*x_57
      + 258 x_52*x_58 + 258 x_52*x_60 + 258 x_52*x_84 + 258 x_52*x_88
      + 258 x_52*x_90 + 258 x_52*x_92 + 258 x_52*x_100 + 258 x_52*x_104
      + 258 x_52*x_105 + 258 x_52*x_106 + 258 x_52*x_108 + 258 x_52*x_116
      + 258 x_53*x_54 + 258 x_53*x_55 + 258 x_53*x_57 + 258 x_53*x_58
      + 258 x_53*x_59 + 258 x_53*x_61 + 258 x_53*x_85 + 258 x_53*x_89
      + 258 x_53*x_90 + 258 x_53*x_91 + 258 x_53*x_93 + 258 x_53*x_101
      + 258 x_53*x_105 + 258 x_53*x_106 + 258 x_53*x_107 + 258 x_53*x_109
      + 258 x_53*x_117 + 258 x_54*x_55 + 258 x_54*x_58 + 258 x_54*x_59
      + 258 x_54*x_60 + 258 x_54*x_61 + 258 x_54*x_62 + 258 x_54*x_86
      + 258 x_54*x_90 + 258 x_54*x_91 + 258 x_54*x_94 + 258 x_54*x_102
      + 258 x_54*x_106 + 258 x_54*x_108 + 258 x_54*x_109 + 258 x_54*x_110
      + 258 x_54*x_118 + 258 x_55*x_59 + 258 x_55*x_61 + 258 x_55*x_62
      + 258 x_55*x_63 + 258 x_55*x_87 + 258 x_55*x_91 + 258 x_55*x_95
      + 258 x_55*x_103 + 258 x_55*x_107 + 258 x_55*x_109 + 258 x_55*x_110
      + 258 x_55*x_111 + 258 x_55*x_119 + 258 x_56*x_57 + 258 x_56*x_58
      + 258 x_56*x_60 + 258 x_56*x_88 + 258 x_56*x_92 + 258 x_56*x_104
      + 258 x_56*x_112 + 258 x_56*x_113 + 258 x_56*x_114 + 258 x_56*x_116
      + 258 x_56*x_120 + 258 x_57*x_58 + 258 x_57*x_59 + 258 x_57*x_60
      + 258 x_57*x_61 + 258 x_57*x_89 + 258 x_57*x_92 + 258 x_57*x_93
      + 258 x_57*x_105 + 258 x_57*x_113 + 258 x_57*x_114 + 258 x_57*x_115
      + 258 x_57*x_117 + 258 x_57*x_121 + 258 x_58*x_59 + 258 x_58*x_60
      + 258 x_58*x_61 + 258 x_58*x_62 + 258 x_58*x_90 + 258 x_58*x_92
      + 258 x_58*x_93 + 258 x_58*x_94 + 258 x_58*x_106 + 258 x_58*x_114
      + 258 x_58*x_116 + 258 x_58*x_117 + 258 x_58*x_118 + 258 x_58*x_122
      + 258 x_59*x_61 + 258 x_59*x_62 + 258 x_59*x_63 + 258 x_59*x_91
      + 258 x_59*x_93 + 258 x_59*x_95 + 258 x_59*x_107 + 258 x_59*x_115
      + 258 x_59*x_117 + 258 x_59*x_118 + 258 x_59*x_119 + 258 x_59*x_123
      + 258 x_60*x_61 + 258 x_60*x_62 + 258 x_60*x_92 + 258 x_60*x_94
      + 258 x_60*x_108 + 258 x_60*x_116 + 258 x_60*x_120 + 258 x_60*x_121
      + 258 x_60*x_122 + 258 x_60*x_124 + 258 x_61*x_62 + 258 x_61*x_63
      + 258 x_61*x_93 + 258 x_61*x_94 + 258 x_61*x_95 + 258 x_61*x_109
      + 258 x_61*x_117 + 258 x_61*x_121 + 258 x_61*x_122 + 258 x_61*x_123
      + 258 x_61*x_125 + 258 x_62*x_63 + 258 x_62*x_94 + 258 x_62*x_95
      + 258 x_62*x_110 + 258 x_62*x_118 + 258 x_62*x_122 + 258 x_62*x_124
      + 258 x_62*x_125 + 258 x_62*x_126 + 258 x_63*x_95 + 258 x_63*x_111
      + 258 x_63*x_119 + 258 x_63*x_123 + 258 x_63*x_125 + 258 x_63*x_126
      + 258 x_63*x_127 + 258 x_64*x_65 + 258 x_64*x_66 + 258 x_64*x_68
      + 258 x_64*x_72 + 258 x_64*x_80 + 258 x_64*x_96 + 258 x_65*x_66
      + 258 x_65*x_67 + 258 x_65*x_68 + 258 x_65*x_69 + 258 x_65*x_72
      + 258 x_65*x_73 + 258 x_65*x_80 + 258 x_65*x_81 + 258 x_65*x_96
      + 258 x_65*x_97 + 258 x_66*x_67 + 258 x_66*x_68 + 258 x_66*x_69
      + 258 x_66*x_70 + 258 x_66*x_72 + 258 x_66*x_73 + 258 x_66*x_74
      + 258 x_66*x_80 + 258 x_66*x_81 + 258 x_66*x_82 + 258 x_66*x_96
      + 258 x_66*x_97 + 258 x_66*x_98 + 258 x_67*x_69 + 258 x_67*x_70
      + 258 x_67*x_71 + 258 x_67*x_73 + 258 x_67*x_75 + 258 x_67*x_81
      + 258 x_67*x_83 + 258 x_67*x_97 + 258 x_67*x_99 + 258 x_68*x_69
      + 258 x_68*x_70 + 258 x_68*x_72 + 258 x_68*x_73 + 258 x_68*x_74
      + 258 x_68*x_76 + 258 x_68*x_80 + 258 x_68*x_82 + 258 x_68*x_84
      + 258 x_68*x_96 + 258 x_68*x_98 + 258 x_68*x_100 + 258 x_69*x_70
      + 258 x_69*x_71 + 258 x_69*x_73 + 258 x_69*x_74 + 258 x_69*x_75
      + 258 x_69*x_77 + 258 x_69*x_81 + 258 x_69*x_82 + 258 x_69*x_83
      + 258 x_69*x_85 + 258 x_69*x_97 + 258 x_69*x_98 + 258 x_69*x_99
      + 258 x_69*x_101 + 258 x_70*x_71 + 258 x_70*x_74 + 258 x_70*x_75
      + 258 x_70*x_76 + 258 x_70*x_77 + 258 x_70*x_78 + 258 x_70*x_82
      + 258 x_70*x_83 + 258 x_70*x_86 + 258 x_70*x_98 + 258 x_70*x_99
      + 258 x_70*x_102 + 258 x_71*x_75 + 258 x_71*x_77 + 258 x_71*x_78
      + 258 x_71*x_79 + 258 x_71*x_83 + 258 x_71*x_87 + 258 x_71*x_99
      + 258 x_71*x_103 + 258 x_72*x_73 + 258 x_72*x_74 + 258 x_72*x_76
      + 258 x_72*x_80 + 258 x_72*x_81 + 258 x_72*x_82 + 258 x_72*x_84
      + 258 x_72*x_88 + 258 x_72*x_96 + 258 x_72*x_100 + 258 x_72*x_104
      + 258 x_73*x_74 + 258 x_73*x_75 + 258 x_73*x_76 + 258 x_73*x_77
      + 258 x_73*x_81 + 258 x_73*x_82 + 258 x_73*x_83 + 258 x_73*x_84
      + 258 x_73*x_85 + 258 x_73*x_89 + 258 x_73*x_97 + 258 x_73*x_100
      + 258 x_73*x_101 + 258 x_73*x_105 + 258 x_74*x_75 + 258 x_74*x_76
      + 258 x_74*x_77 + 258 x_74*x_78 + 258 x_74*x_82 + 258 x_74*x_84
      + 258 x_74*x_85 + 258 x_74*x_86 + 258 x_74*x_90 + 258 x_74*x_98
      + 258 x_74*x_100 + 258 x_74*x_101 + 258 x_74*x_102 + 258 x_74*x_106
      + 258 x_75*x_77 + 258 x_75*x_78 + 258 x_75*x_79 + 258 x_75*x_83
      + 258 x_75*x_85 + 258 x_75*x_86 + 258 x_75*x_87 + 258 x_75*x_91
      + 258 x_75*x_99 + 258 x_75*x_101 + 258 x_75*x_103 + 258 x_75*x_107
      + 258 x_76*x_77 + 258 x_76*x_78 + 258 x_76*x_84 + 258 x_76*x_86
      + 258 x_76*x_88 + 258 x_76*x_89 + 258 x_76*x_90 + 258 x_76*x_92
      + 258 x_76*x_100 + 258 x_76*x_102 + 258 x_76*x_108 + 258 x_77*x_78
      + 258 x_77*x_79 + 258 x_77*x_85 + 258 x_77*x_86 + 258 x_77*x_87
      + 258 x_77*x_89 + 258 x_77*x_90 + 258 x_77*x_91 + 258 x_77*x_93
      + 258 x_77*x_101 + 258 x_77*x_102 + 258 x_77*x_103 + 258 x_77*x_109
      + 258 x_78*x_79 + 258 x_78*x_86 + 258 x_78*x_87 + 258 x_78*x_90
      + 258 x_78*x_92 + 258 x_78*x_93 + 258 x_78*x_94 + 258 x_78*x_102
      + 258 x_78*x_103 + 258 x_78*x_110 + 258 x_79*x_87 + 258 x_79*x_91
      + 258 x_79*x_93 + 258 x_79*x_94 + 258 x_79*x_95 + 258 x_79*x_103
      + 258 x_79*x_111 + 258 x_80*x_81 + 258 x_80*x_82 + 258 x_80*x_84
      + 258 x_80*x_88 + 258 x_80*x_96 + 258 x_80*x_97 + 258 x_80*x_98
      + 258 x_80*x_100 + 258 x_80*x_104 + 258 x_80*x_112 + 258 x_81*x_82
      + 258 x_81*x_83 + 258 x_81*x_84 + 258 x_81*x_85 + 258 x_81*x_88
      + 258 x_81*x_89 + 258 x_81*x_97 + 258 x_81*x_98 + 258 x_81*x_99
      + 258 x_81*x_101 + 258 x_81*x_104 + 258 x_81*x_105 + 258 x_81*x_113
      + 258 x_82*x_83 + 258 x_82*x_84 + 258 x_82*x_85 + 258 x_82*x_86
      + 258 x_82*x_88 + 258 x_82*x_89 + 258 x_82*x_90 + 258 x_82*x_98
      + 258 x_82*x_100 + 258 x_82*x_101 + 258 x_82*x_102 + 258 x_82*x_104
      + 258 x_82*x_105 + 258 x_82*x_106 + 258 x_82*x_114 + 258 x_83*x_85
      + 258 x_83*x_86 + 258 x_83*x_87 + 258 x_83*x_89 + 258 x_83*x_91
      + 258 x_83*x_99 + 258 x_83*x_101 + 258 x_83*x_102 + 258 x_83*x_103
      + 258 x_83*x_105 + 258 x_83*x_107 + 258 x_83*x_115 + 258 x_84*x_85
      + 258 x_84*x_86 + 258 x_84*x_88 + 258 x_84*x_89 + 258 x_84*x_90
      + 258 x_84*x_92 + 258 x_84*x_100 + 258 x_84*x_104 + 258 x_84*x_105
      + 258 x_84*x_106 + 258 x_84*x_108 + 258 x_84*x_116 + 258 x_85*x_86
      + 258 x_85*x_87 + 258 x_85*x_89 + 258 x_85*x_90 + 258 x_85*x_91
      + 258 x_85*x_93 + 258 x_85*x_101 + 258 x_85*x_105 + 258 x_85*x_106
      + 258 x_85*x_107 + 258 x_85*x_109 + 258 x_85*x_117 + 258 x_86*x_87
      + 258 x_86*x_90 + 258 x_86*x_91 + 258 x_86*x_92 + 258 x_86*x_93
      + 258 x_86*x_94 + 258 x_86*x_102 + 258 x_86*x_106 + 258 x_86*x_107
      + 258 x_86*x_108 + 258 x_86*x_109 + 258 x_86*x_110 + 258 x_86*x_118
      + 258 x_87*x_91 + 258 x_87*x_93 + 258 x_87*x_94 + 258 x_87*x_95
      + 258 x_87*x_103 + 258 x_87*x_107 + 258 x_87*x_109 + 258 x_87*x_110
      + 258 x_87*x_111 + 258 x_87*x_119 + 258 x_88*x_89 + 258 x_88*x_90
      + 258 x_88*x_92 + 258 x_88*x_104 + 258 x_88*x_108 + 258 x_88*x_112
      + 258 x_88*x_113 + 258 x_88*x_114 + 258 x_88*x_116 + 258 x_88*x_120
      + 258 x_89*x_90 + 258 x_89*x_91 + 258 x_89*x_92 + 258 x_89*x_93
      + 258 x_89*x_105 + 258 x_89*x_108 + 258 x_89*x_109 + 258 x_89*x_113
      + 258 x_89*x_114 + 258 x_89*x_115 + 258 x_89*x_117 + 258 x_89*x_121
      + 258 x_90*x_91 + 258 x_90*x_92 + 258 x_90*x_93 + 258 x_90*x_94
      + 258 x_90*x_106 + 258 x_90*x_108 + 258 x_90*x_109 + 258 x_90*x_110
      + 258 x_90*x_114 + 258 x_90*x_116 + 258 x_90*x_117 + 258 x_90*x_118
      + 258 x_90*x_122 + 258 x_91*x_93 + 258 x_91*x_94 + 258 x_91*x_95
      + 258 x_91*x_107 + 258 x_91*x_109 + 258 x_91*x_111 + 258 x_91*x_115
      + 258 x_91*x_117 + 258 x_91*x_118 + 258 x_91*x_119 + 258 x_91*x_123
      + 258 x_92*x_93 + 258 x_92*x_94 + 258 x_92*x_108 + 258 x_92*x_110
      + 258 x_92*x_116 + 258 x_92*x_120 + 258 x_92*x_121 + 258 x_92*x_122
      + 258 x_92*x_124 + 258 x_93*x_94 + 258 x_93*x_95 + 258 x_93*x_109
      + 258 x_93*x_110 + 258 x_93*x_111 + 258 x_93*x_117 + 258 x_93*x_121
      + 258 x_93*x_122 + 258 x_93*x_123 + 258 x_93*x_125 + 258 x_94*x_95
      + 258 x_94*x_110 + 258 x_94*x_111 + 258 x_94*x_118 + 258 x_94*x_122
      + 258 x_94*x_124 + 258 x_94*x_125 + 258 x_94*x_126 + 258 x_95*x_111
      + 258 x_95*x_119 + 258 x_95*x_123 + 258 x_95*x_125 + 258 x_95*x_126
      + 258 x_95*x_127 + 258 x_96*x_97 + 258 x_96*x_98 + 258 x_96*x_100
      + 258 x_96*x_104 + 258 x_96*x_112 + 258 x_97*x_98 + 258 x_97*x_99
      + 258 x_97*x_100 + 258 x_97*x_101 + 258 x_97*x_104 + 258 x_97*x_105
      + 258 x_97*x_112 + 258 x_97*x_113 + 258 x_98*x_99 + 258 x_98*x_100
      + 258 x_98*x_101 + 258 x_98*x_102 + 258 x_98*x_104 + 258 x_98*x_105
      + 258 x_98*x_106 + 258 x_98*x_112 + 258 x_98*x_113 + 258 x_98*x_114
      + 258 x_99*x_101 + 258 x_99*x_102 + 258 x_99*x_103 + 258 x_99*x_105
      + 258 x_99*x_107 + 258 x_99*x_113 + 258 x_99*x_115 + 258 x_100*x_101
      + 258 x_100*x_102 + 258 x_100*x_104 + 258 x_100*x_105 + 258 x_100*x_106
      + 258 x_100*x_108 + 258 x_100*x_112 + 258 x_100*x_114 + 258 x_100*x_116
      + 258 x_101*x_102 + 258 x_101*x_103 + 258 x_101*x_105 + 258 x_101*x_106
      + 258 x_101*x_107 + 258 x_101*x_109 + 258 x_101*x_113 + 258 x_101*x_114
      + 258 x_101*x_115 + 258 x_101*x_117 + 258 x_102*x_103 + 258 x_102*x_106
      + 258 x_102*x_107 + 258 x_102*x_108 + 258 x_102*x_109 + 258 x_102*x_110
      + 258 x_102*x_114 + 258 x_102*x_115 + 258 x_102*x_118 + 258 x_103*x_107
      + 258 x_103*x_109 + 258 x_103*x_110 + 258 x_103*x_111 + 258 x_103*x_115
      + 258 x_103*x_119 + 258 x_104*x_105 + 258 x_104*x_106 + 258 x_104*x_108
      + 258 x_104*x_112 + 258 x_104*x_113 + 258 x_104*x_114 + 258 x_104*x_116
      + 258 x_104*x_120 + 258 x_105*x_106 + 258 x_105*x_107 + 258 x_105*x_108
      + 258 x_105*x_109 + 258 x_105*x_113 + 258 x_105*x_114 + 258 x_105*x_115
      + 258 x_105*x_116 + 258 x_105*x_117 + 258 x_105*x_121 + 258 x_106*x_107
      + 258 x_106*x_108 + 258 x_106*x_109 + 258 x_106*x_110 + 258 x_106*x_114
      + 258 x_106*x_116 + 258 x_106*x_117 + 258 x_106*x_118 + 258 x_106*x_122
      + 258 x_107*x_109 + 258 x_107*x_110 + 258 x_107*x_111 + 258 x_107*x_115
      + 258 x_107*x_117 + 258 x_107*x_118 + 258 x_107*x_119 + 258 x_107*x_123
      + 258 x_108*x_109 + 258 x_108*x_110 + 258 x_108*x_116 + 258 x_108*x_118
      + 258 x_108*x_120 + 258 x_108*x_121 + 258 x_108*x_122 + 258 x_108*x_124
      + 258 x_109*x_110 + 258 x_109*x_111 + 258 x_109*x_117 + 258 x_109*x_118
      + 258 x_109*x_119 + 258 x_109*x_121 + 258 x_109*x_122 + 258 x_109*x_123
      + 258 x_109*x_125 + 258 x_110*x_111 + 258 x_110*x_118 + 258 x_110*x_119
      + 258 x_110*x_122 + 258 x_110*x_124 + 258 x_110*x_125 + 258 x_110*x_126
      + 258 x_111*x_119 + 258 x_111*x_123 + 258 x_111*x_125 + 258 x_111*x_126
      + 258 x_111*x_127 + 258 x_112*x_113 + 258 x_112*x_114 + 258 x_112*x_116
      + 258 x_112*x_120 + 258 x_113*x_114 + 258 x_113*x_115 + 258 x_113*x_116
      + 258 x_113*x_117 + 258 x_113*x_120 + 258 x_113*x_121 + 258 x_114*x_115
      + 258 x_114*x_116 + 258 x_114*x_117 + 258 x_114*x_118 + 258 x_114*x_120
      + 258 x_114*x_121 + 258 x_114*x_122 + 258 x_115*x_117 + 258 x_115*x_118
      + 258 x_115*x_119 + 258 x_115*x_121 + 258 x_115*x_123 + 258 x_116*x_117
      + 258 x_116*x_118 + 258 x_116*x_120 + 258 x_116*x_121 + 258 x_116*x_122
      + 258 x_116*x_124 + 258 x_117*x_118 + 258 x_117*x_119 + 258 x_117*x_121
      + 258 x_117*x_122 + 258 x_117*x_123 + 258 x_117*x_125 + 258 x_118*x_119
      + 258 x_118*x_122 + 258 x_118*x_123 + 258 x_118*x_124 + 258 x_118*x_125
      + 258 x_118*x_126 + 258 x_119*x_123 + 258 x_119*x_125 + 258 x_119*x_126
      + 258 x_119*x_127 + 258 x_120*x_121 + 258 x_120*x_122 + 258 x_120*x_124
      + 258 x_121*x_122 + 258 x_121*x_123 + 258 x_121*x_124 + 258 x_121*x_125
      + 258 x_122*x_123 + 258 x_122*x_124 + 258 x_122*x_125 + 258 x_122*x_126
      + 258 x_123*x_125 + 258 x_123*x_126 + 258 x_123*x_127 + 258 x_124*x_125
      + 258 x_124*x_126 + 258 x_125*x_126 + 258 x_125*x_127 + 258 x_126*x_127
      ]/2
Subject To

Bounds
 0 <= x_0 <= 1
 0 <= x_1 <= 1
 0 <= x_2 <= 1
 0 <= x_3 <= 1
 0 <= x_4 <= 1
 0 <= x_5 <= 1
 0 <= x_6 <= 1
 0 <= x_7 <= 1
 0 <= x_8 <= 1
 0 <= x_9 <= 1
 0 <= x_10 <= 1
 0 <= x_11 <= 1
 0 <= x_12 <= 1
 0 <= x_13 <= 1
 0 <= x_14 <= 1
 0 <= x_15 <= 1
 0 <= x_16 <= 1
 0 <= x_17 <= 1
 0 <= x_18 <= 1
 0 <= x_19 <= 1
 0 <= x_20 <= 1
 0 <= x_21 <= 1
 0 <= x_22 <= 1
 0 <= x_23 <= 1
 0 <= x_24 <= 1
 0 <= x_25 <= 1
 0 <= x_26 <= 1
 0 <= x_27 <= 1
 0 <= x_28 <= 1
 0 <= x_29 <= 1
 0 <= x_30 <= 1
 0 <= x_31 <= 1
 0 <= x_32 <= 1
 0 <= x_33 <= 1
 0 <= x_34 <= 1
 0 <= x_35 <= 1
 0 <= x_36 <= 1
 0 <= x_37 <= 1
 0 <= x_38 <= 1
 0 <= x_39 <= 1
 0 <= x_40 <= 1
 0 <= x_41 <= 1
 0 <= x_42 <= 1
 0 <= x_43 <= 1
 0 <= x_44 <= 1
 0 <= x_45 <= 1
 0 <= x_46 <= 1
 0 <= x_47 <= 1
 0 <= x_48 <= 1
 0 <= x_49 <= 1
 0 <= x_50 <= 1
 0 <= x_51 <= 1
 0 <= x_52 <= 1
 0 <= x_53 <= 1
 0 <= x_54 <= 1
 0 <= x_55 <= 1
 0 <= x_56 <= 1
 0 <= x_57 <= 1
 0 <= x_58 <= 1
 0 <= x_59 <= 1
 0 <= x_60 <= 1
 0 <= x_61 <= 1
 0 <= x_62 <= 1
 0 <= x_63 <= 1
 0 <= x_64 <= 1
 0 <= x_65 <= 1
 0 <= x_66 <= 1
 0 <= x_67 <= 1
 0 <= x_68 <= 1
 0 <= x_69 <= 1
 0 <= x_70 <= 1
 0 <= x_71 <= 1
 0 <= x_72 <= 1
 0 <= x_73 <= 1
 0 <= x_74 <= 1
 0 <= x_75 <= 1
 0 <= x_76 <= 1
 0 <= x_77 <= 1
 0 <= x_78 <= 1
 0 <= x_79 <= 1
 0 <= x_80 <= 1
 0 <= x_81 <= 1
 0 <= x_82 <= 1
 0 <= x_83 <= 1
 0 <= x_84 <= 1
 0 <= x_85 <= 1
 0 <= x_86 <= 1
 0 <= x_87 <= 1
 0 <= x_88 <= 1
 0 <= x_89 <= 1
 0 <= x_90 <= 1
 0 <= x_91 <= 1
 0 <= x_92 <= 1
 0 <= x_93 <= 1
 0 <= x_94 <= 1
 0 <= x_95 <= 1
 0 <= x_96 <= 1
 0 <= x_97 <= 1
 0 <= x_98 <= 1
 0 <= x_99 <= 1
 0 <= x_100 <= 1
 0 <= x_101 <= 1
 0 <= x_102 <= 1
 0 <= x_103 <= 1
 0 <= x_104 <= 1
 0 <= x_105 <= 1
 0 <= x_106 <= 1
 0 <= x_107 <= 1
 0 <= x_108 <= 1
 0 <= x_109 <= 1
 0 <= x_110 <= 1
 0 <= x_111 <= 1
 0 <= x_112 <= 1
 0 <= x_113 <= 1
 0 <= x_114 <= 1
 0 <= x_115 <= 1
 0 <= x_116 <= 1
 0 <= x_117 <= 1
 0 <= x_118 <= 1
 0 <= x_119 <= 1
 0 <= x_120 <= 1
 0 <= x_121 <= 1
 0 <= x_122 <= 1
 0 <= x_123 <= 1
 0 <= x_124 <= 1
 0 <= x_125 <= 1
 0 <= x_126 <= 1
 0 <= x_127 <= 1

Binaries
 x_0 x_1 x_2 x_3 x_4 x_5 x_6 x_7 x_8 x_9 x_10 x_11 x_12 x_13 x_14 x_15 x_16 x_17
 x_18 x_19 x_20 x_21 x_22 x_23 x_24 x_25 x_26 x_27 x_28 x_29 x_30 x_31 x_32 x_33
 x_34 x_35 x_36 x_37 x_38 x_39 x_40 x_41 x_42 x_43 x_44 x_45 x_46 x_47 x_48 x_49
 x_50 x_51 x_52 x_53 x_54 x_55 x_56 x_57 x_58 x_59 x_60 x_61 x_62 x_63 x_64 x_65
 x_66 x_67 x_68 x_69 x_70 x_71 x_72 x_73 x_74 x_75 x_76 x_77 x_78 x_79 x_80 x_81
 x_82 x_83 x_84 x_85 x_86 x_87 x_88 x_89 x_90 x_91 x_92 x_93 x_94 x_95 x_96 x_97
 x_98 x_99 x_100 x_101 x_102 x_103 x_104 x_105 x_106 x_107 x_108 x_109 x_110
 x_111 x_112 x_113 x_114 x_115 x_116 x_117 x_118 x_119 x_120 x_121 x_122 x_123
 x_124 x_125 x_126 x_127
End
